NAME: GRASP_53_0
TYPE: TSP
COMMENT: line_53_0
DIMENSION: 53
EDGE_WEIGHT_TYPE: EUC_2D
NODE_COORD_SECTION
1 4497 4540
2 2892 1735
3 2162 3031
4 4752 2412
5 3474 4383
6 1983 1754
7 990 4846
8 4614 820
9 2357 4919
10 2178 3421
11 3532 1840
12 2898 1936
13 4963 1988
14 2817 4180
15 3101 3638
16 4742 303
17 3774 3936
18 1465 907
19 4708 3787
20 2509 1408
21 3902 3197
22 1236 3136
23 3045 3498
24 4950 3177
25 876 2582
26 925 4127
27 4851 1187
28 3910 1443
29 2322 4575
30 4577 3589
31 784 2051
32 636 3332
33 3444 993
34 1566 856
35 4660 2144
36 852 1833
37 26 2030
38 3183 3218
39 2848 4560
40 3421 1809
41 4338 2271
42 3331 1526
43 2925 1751
44 2845 1364
45 4241 1927
46 2521 2223
47 2193 1203
48 510 726
49 1665 2783
50 3347 518
51 3461 3120
52 1107 800
53 4458 290
